; redis-py :: corpus-study/repo_src/redis-py/redis/asyncio/connection.py :: wait_for at send_packed_command:686 :: naive encoding (verdict: unsat)
; Generated by snf-pipeline (encoder.py) -- run with any
; SMT-LIB2-compliant solver, e.g. `z3 redis-py__corpus-study_repo_src_redis-py_redis_asyncio_connection.py__waitfor_send_packed_command_L686__naive.smt2`
; benchmark generated from python API
(set-info :status unknown)
(declare-fun timeout_fires () Bool)
(declare-fun cleanup_ran () Bool)
(assert
 (= timeout_fires false))
(assert
 (let (($x50 (not cleanup_ran)))
(and timeout_fires $x50)))
(check-sat)
